n_machines = 2;
n_resources = 4;
n_jobs = 80;
horizon = 40112;
LB = 20056;
n_jobs_per_resource = [20, 20, 20, 20];
duration = [255, 638, 375, 844, 116, 982, 349, 279, 126, 158, 476, 962, 681, 931, 696, 455, 494, 999, 205, 636, 829, 693, 278, 140, 15, 668, 263, 965, 622, 632, 737, 289, 579, 238, 586, 564, 52, 301, 503, 788, 704, 154, 495, 255, 32, 620, 412, 422, 444, 39, 761, 6, 455, 260, 259, 535, 345, 613, 973, 606, 807, 501, 884, 197, 488, 662, 643, 899, 998, 684, 788, 118, 319, 7, 732, 995, 408, 87, 802, 304]